     Program PWSCF v.5.0.2 (svn rev. 9656) starts on 29Aug2015 at  1: 9:51

     Current dimensions of program PWSCF are:
     Max number of different atomic species (ntypx) = 10
     Max number of k-points (npk) =  40000
     Max angular momentum in pseudopotentials (lmaxx) =  3
     Waiting for input...
     Reading input from standard input
Warning: card &CELL ignored
Warning: card CELL_DOFREE = '2DXY' ignored
Warning: card / ignored

     bravais-lattice index     =            4
     lattice parameter (alat)  =       9.3028  a.u.
     unit-cell volume          =    3486.1357 (a.u.)^3
     number of atoms/cell      =            4
     number of atomic types    =            1
     number of electrons       =        16.00
     number of Kohn-Sham states=           16
     kinetic-energy cutoff     =      50.0000  Ry
     charge density cutoff     =     200.0000  Ry
     convergence threshold     =      1.0E-12
     mixing beta               =       0.7000
     number of iterations used =            8  plain     mixing
     Exchange-correlation      =  SLA  PZ   NOGX NOGC ( 1 1 0 0 0)
     EXX-fraction              =        0.00
     nstep                     =           50

     celldm(1)=   9.302819  celldm(2)=   0.000000  celldm(3)=   5.000000
     celldm(4)=   0.000000  celldm(5)=   0.000000  celldm(6)=   0.000000

     crystal axes: (cart. coord. in units of alat)
               a(1) = (   1.000000   0.000000   0.000000 )
               a(2) = (  -0.500000   0.866025   0.000000 )
               a(3) = (   0.000000   0.000000   5.000000 )

     reciprocal axes: (cart. coord. in units 2 pi/alat)
               b(1) = (  1.000000  0.577350  0.000000 )
               b(2) = (  0.000000  1.154701  0.000000 )
               b(3) = (  0.000000  0.000000  0.200000 )

     PseudoPot. # 1 for Sn read from file:
     /user/antwerpen/201/vsc20155/DFT/QEspresso/pseudopotentials/Sn.pz-bhs.UPF
     MD5 check sum: ef254960ae38efa59c08c9b90b3bf6f4
     Pseudo is Norm-conserving, Zval =  4.0
     Generated by new atomic code, or converted to UPF format
     Using radial grid of  601 points,  2 beta functions with:
                l(1) =   0
                l(2) =   1

     atomic species   valence    mass     pseudopotential
        Sn             4.00   118.71000     Sn( 1.00)

     No symmetry found

   Cartesian axes

     site n.     atom                  positions (alat units)
         1           Sn  tau(   1) = (   0.5300000   0.2886751   0.1017883  )
         2           Sn  tau(   2) = (   0.0000000   0.5773503   0.1017785  )
         3           Sn  tau(   3) = (   0.5000000   0.2886751   0.7151797  )
         4           Sn  tau(   4) = (   0.0000000   0.5773503   0.7151677  )

     number of k points=   452  Methfessel-Paxton smearing, width (Ry)=  0.0200

     Number of k-points >= 100: set verbosity='high' to print them.

     Largest allocated arrays     est. size (Mb)     dimensions
     Largest temporary arrays     est. size (Mb)     dimensions

     Initial potential from superposition of free atoms
     Check: negative starting charge=   -0.000277

     starting charge   15.99419, renormalised to   16.00000

     negative rho (up, down):  0.277E-03 0.000E+00
     Starting wfc are   16 randomized atomic wfcs

     Self-consistent Calculation

     iteration #  1     ecut=    50.00 Ry     beta=0.70
     Davidson diagonalization with overlap
     ethr =  1.00E-02,  avg # of iterations =  5.7

     Threshold (ethr) on eigenvalues was too large:
     Diagonalizing with lowered threshold

     Davidson diagonalization with overlap
     ethr =  5.28E-04,  avg # of iterations =  2.4

     negative rho (up, down):  0.708E-04 0.000E+00

     total energy              =     -28.33855770 Ry
     Harris-Foulkes estimate   =     -28.38821426 Ry
     estimated scf accuracy    <       0.08850492 Ry

[...]

     End of self-consistent calculation

     Number of k-points >= 100: set verbosity='high' to print the bands.

     the Fermi energy is    -1.9454 ev

!    total energy              =     -28.36546616 Ry
     Harris-Foulkes estimate   =     -28.36546616 Ry
     estimated scf accuracy    <          1.4E-13 Ry

     The total energy is the sum of the following terms:

     one-electron contribution =    -190.28867401 Ry
     hartree contribution      =      96.69454948 Ry
     xc contribution           =      -8.11104733 Ry
     ewald contribution        =      73.33981388 Ry
     smearing contrib. (-TS)   =      -0.00010818 Ry

     convergence has been achieved in  11 iterations

     Forces acting on atoms (Ry/au):

     atom    1 type  1   force =    -0.04121444   -0.00541451    0.02288462
     atom    2 type  1   force =     0.03852255    0.00546604    0.02255921
     atom    3 type  1   force =     0.00352828   -0.00028451   -0.02288436
     atom    4 type  1   force =    -0.00083639    0.00023298   -0.02255946

     Total force =     0.072941     Total SCF correction =     0.000000

     BFGS Geometry Optimization

     number of scf cycles    =   1
     number of bfgs steps    =   0

     energy   new            =     -28.3654661550 Ry

     new trust radius        =       0.0474515829 bohr
     new conv_thr            =            1.0E-12 Ry

ATOMIC_POSITIONS (crystal)
Sn       0.691900315   0.332661264   0.020849645
Sn       0.337813521   0.667345132   0.020840704
Sn       0.667028279   0.333298018   0.142543951
Sn       0.333257885   0.666695585   0.142548529

     Writing output data file SnBLrelax.save
     Check: negative starting charge=   -0.000277
     NEW-OLD atomic charge density approx. for the potential
     Check: negative starting charge=   -0.000277

[...]

     iteration #  1     ecut=    50.00 Ry     beta=0.70
     Davidson diagonalization with overlap
     c_bands:  1 eigenvalues not converged
     c_bands:  1 eigenvalues not converged
     c_bands:  1 eigenvalues not converged
     c_bands:  1 eigenvalues not converged
     c_bands:  1 eigenvalues not converged
     c_bands:  1 eigenvalues not converged
     c_bands:  1 eigenvalues not converged
     c_bands:  1 eigenvalues not converged
     c_bands:  1 eigenvalues not converged
     c_bands:  1 eigenvalues not converged
     c_bands:  1 eigenvalues not converged
     c_bands:  1 eigenvalues not converged
     ethr =  1.00E-06,  avg # of iterations =  6.7

[...]

     energy   old            =     -28.3654661550 Ry
     energy   new            =     -28.3701630576 Ry

     CASE: energy  _new < energy  _old

[...]

     WARNING: bfgs curvature condition failed, Theta= 0.880
     new trust radius        =       0.0019884987 bohr
     new conv_thr            =            4.3E-14 Ry

[...]

     iteration #  3     ecut=    50.00 Ry     beta=0.70
     Davidson diagonalization with overlap
     c_bands:  1 eigenvalues not converged
     c_bands:  1 eigenvalues not converged
     ethr =  1.22E-09,  avg # of iterations =  2.4

[...]

     negative rho (up, down):  0.720E-07 0.000E+00

[...]

     small trust_radius: resetting bfgs history

[...]

     number of scf cycles    =  21
     number of bfgs steps    =  20

     energy   old            =     -28.3786275082 Ry
     energy   new            =     -28.3786275084 Ry

     CASE: energy  _new < energy  _old

     WARNING: bfgs curvature condition failed, Theta= 0.995
     Message from routine bfgs:
     history already reset at previous step: stopping
     small trust_radius: resetting bfgs history

     new trust radius        =       0.0000061611 bohr
     new conv_thr            =            1.0E-14 Ry

ATOMIC_POSITIONS (crystal)
Sn       0.674164320   0.333332684   0.023584079
Sn       0.340831275   0.666666106   0.023582698
Sn       0.674168473   0.333334325   0.139807657
Sn       0.340835932   0.666666885   0.139808396

     Writing output data file SnBLrelax.save
     Check: negative starting charge=   -0.000299
     NEW-OLD atomic charge density approx. for the potential
     Check: negative starting charge=   -0.000299

     Self-consistent Calculation

[...]

     Threshold (ethr) on eigenvalues was too large:
     Diagonalizing with lowered threshold

     Davidson diagonalization with overlap
     ethr =  6.30E-15,  avg # of iterations =  3.2

[...]

     total energy              =     -28.37862751 Ry
     Harris-Foulkes estimate   =     -28.37862751 Ry
     estimated scf accuracy    <          4.8E-14 Ry

     iteration #  5     ecut=    50.00 Ry     beta=0.70
     Davidson diagonalization with overlap
     ethr =  1.00E-13,  avg # of iterations =  1.0

     End of self-consistent calculation

     Number of k-points >= 100: set verbosity='high' to print the bands.

     the Fermi energy is    -2.0980 ev

!    total energy              =     -28.37862751 Ry
     Harris-Foulkes estimate   =     -28.37862751 Ry
     estimated scf accuracy    <          3.1E-16 Ry

     The total energy is the sum of the following terms:

     one-electron contribution =    -195.18783838 Ry
     hartree contribution      =      99.12878946 Ry
     xc contribution           =      -8.17020909 Ry
     ewald contribution        =      75.85055155 Ry
     smearing contrib. (-TS)   =       0.00007894 Ry

     convergence has been achieved in   5 iterations

     Forces acting on atoms (Ry/au):

     atom    1 type  1   force =     0.00000051    0.00000025   -0.00000465
     atom    2 type  1   force =     0.00000012   -0.00000008    0.00000479
     atom    3 type  1   force =     0.00000118   -0.00000096    0.00000438
     atom    4 type  1   force =    -0.00000181    0.00000079   -0.00000452

     Total force =     0.000010     Total SCF correction =     0.000000

     The maximum number of steps has been reached.

     End of BFGS Geometry Optimization
Begin final coordinates

ATOMIC_POSITIONS (crystal)
Sn       0.674164320   0.333332684   0.023584079
Sn       0.340831275   0.666666106   0.023582698
Sn       0.674168473   0.333334325   0.139807657
Sn       0.340835932   0.666666885   0.139808396
End final coordinates

     Writing output data file SnBLrelax.save

     General routines

     Parallel routines

   This run was terminated on:   2:33:15  29Aug2015

   JOB DONE.